(set-info :smt-lib-version 2.6)
(set-logic UFLIA)
(set-info :source |Benchmarks from the paper: "Extending Sledgehammer with SMT Solvers" by Jasmin Blanchette, Sascha Bohme, and Lawrence C. Paulson, CADE 2011.  Translated to SMT2 by Andrew Reynolds and Morgan Deters.|)
(set-info :category "industrial")
(set-info :status unknown)
(declare-sort S1 0)
(declare-sort S2 0)
(declare-sort S3 0)
(declare-sort S4 0)
(declare-sort S5 0)
(declare-sort S6 0)
(declare-sort S7 0)
(declare-sort S8 0)
(declare-sort S9 0)
(declare-sort S10 0)
(declare-sort S11 0)
(declare-sort S12 0)
(declare-sort S13 0)
(declare-sort S14 0)
(declare-sort S15 0)
(declare-sort S16 0)
(declare-sort S17 0)
(declare-sort S18 0)
(declare-sort S19 0)
(declare-sort S20 0)
(declare-sort S21 0)
(declare-sort S22 0)
(declare-sort S23 0)
(declare-sort S24 0)
(declare-sort S25 0)
(declare-sort S26 0)
(declare-sort S27 0)
(declare-sort S28 0)
(declare-sort S29 0)
(declare-sort S30 0)
(declare-sort S31 0)
(declare-sort S32 0)
(declare-sort S33 0)
(declare-sort S34 0)
(declare-sort S35 0)
(declare-sort S36 0)
(declare-sort S37 0)
(declare-sort S38 0)
(declare-sort S39 0)
(declare-sort S40 0)
(declare-sort S41 0)
(declare-sort S42 0)
(declare-sort S43 0)
(declare-sort S44 0)
(declare-sort S45 0)
(declare-sort S46 0)
(declare-fun f1 () S1)
(declare-fun f2 () S1)
(declare-fun f3 (S2 S1) S1)
(declare-fun f4 () S2)
(declare-fun f5 (S3 S4) S1)
(declare-fun f6 (S5 S3) S3)
(declare-fun f7 () S5)
(declare-fun f8 (S6 S4) S5)
(declare-fun f9 () S6)
(declare-fun f10 () S3)
(declare-fun f11 (S7 S4) S3)
(declare-fun f12 () S7)
(declare-fun f13 (S9 S8) S1)
(declare-fun f14 (S10 S8) S9)
(declare-fun f15 () S10)
(declare-fun f16 () S7)
(declare-fun f17 () S10)
(declare-fun f18 (S11 S12) S10)
(declare-fun f19 () S11)
(declare-fun f20 () S12)
(declare-fun f21 () S6)
(declare-fun f22 (S13 S3) S1)
(declare-fun f23 (S14 S4) S13)
(declare-fun f24 () S14)
(declare-fun f25 () S6)
(declare-fun f26 () S6)
(declare-fun f27 () S6)
(declare-fun f28 (S15 S8) S10)
(declare-fun f29 () S15)
(declare-fun f30 (S16 S10) S15)
(declare-fun f31 () S16)
(declare-fun f32 () S11)
(declare-fun f33 (S17 S9) S10)
(declare-fun f34 (S18 S10) S17)
(declare-fun f35 () S18)
(declare-fun f36 (S19 S10) S10)
(declare-fun f37 (S20 S1) S19)
(declare-fun f38 () S20)
(declare-fun f39 (S21 S4) S7)
(declare-fun f40 (S22 S1) S21)
(declare-fun f41 () S22)
(declare-fun f42 (S23 S1) S2)
(declare-fun f43 () S23)
(declare-fun f44 () S3)
(declare-fun f45 (S24 S3) S13)
(declare-fun f46 () S24)
(declare-fun f47 () S3)
(declare-fun f48 (S25 S10) S4)
(declare-fun f49 (S26 S12) S25)
(declare-fun f50 (S27 S10) S26)
(declare-fun f51 () S27)
(declare-fun f52 () S1)
(declare-fun f53 (S28 S12) S4)
(declare-fun f54 () S28)
(declare-fun f55 (S30 S4) S31)
(declare-fun f56 (S32 S29) S30)
(declare-fun f57 () S32)
(declare-fun f58 (S33 Int) S31)
(declare-fun f59 () S33)
(declare-fun f60 () S5)
(declare-fun f61 (S34 S3) S4)
(declare-fun f62 () S34)
(declare-fun f63 () S1)
(declare-fun f64 () S12)
(declare-fun f65 (S35 S12) S12)
(declare-fun f66 (S36 S9) S35)
(declare-fun f67 () S36)
(declare-fun f68 (S37 S12) S35)
(declare-fun f69 () S37)
(declare-fun f70 () S30)
(declare-fun f71 () S34)
(declare-fun f72 () S18)
(declare-fun f73 (S38 S9) S9)
(declare-fun f74 (S39 S2) S38)
(declare-fun f75 () S39)
(declare-fun f76 () S24)
(declare-fun f77 (S40 S9) S37)
(declare-fun f78 () S40)
(declare-fun f79 (S42 S41) S5)
(declare-fun f80 () S42)
(declare-fun f81 (S43 S34) S1)
(declare-fun f82 (S44 S41) S43)
(declare-fun f83 () S44)
(declare-fun f84 (S45 S4) S34)
(declare-fun f85 () S45)
(declare-fun f86 (S46 S31) Int)
(declare-fun f87 () S46)
(assert (not (= f1 f2)))
(assert (forall ((?v0 S1)) (= (= (f3 f4 ?v0) f1) (not (= ?v0 f1)))))
(assert (forall ((?v0 S3) (?v1 S4)) (= (= (f5 (f6 f7 ?v0) ?v1) f1) (= ?v0 (f6 (f8 f9 ?v1) f10)))))
(assert (forall ((?v0 S4) (?v1 S4)) (= (= (f5 (f11 f12 ?v0) ?v1) f1) (= ?v0 ?v1))))
(assert (forall ((?v0 S8) (?v1 S8)) (= (= (f13 (f14 f15 ?v0) ?v1) f1) (= ?v0 ?v1))))
(assert (forall ((?v0 S4) (?v1 S4)) (= (= (f5 (f11 f16 ?v0) ?v1) f1) (= ?v1 ?v0))))
(assert (forall ((?v0 S8) (?v1 S8)) (= (= (f13 (f14 f17 ?v0) ?v1) f1) (forall ((?v2 S8)) (=> (= (f13 (f14 (f18 f19 f20) ?v1) ?v2) f1) (= ?v0 ?v2))))))
(assert (forall ((?v0 S4) (?v1 S3) (?v2 S4)) (= (= (f5 (f6 (f8 f21 ?v0) ?v1) ?v2) f1) (or (= ?v2 ?v0) (= (f22 (f23 f24 ?v2) ?v1) f1)))))
(assert (forall ((?v0 S4) (?v1 S3) (?v2 S4)) (= (= (f5 (f6 (f8 f25 ?v0) ?v1) ?v2) f1) (and (= ?v0 ?v2) (= (f5 ?v1 ?v2) f1)))))
(assert (forall ((?v0 S4) (?v1 S3) (?v2 S4)) (= (= (f5 (f6 (f8 f26 ?v0) ?v1) ?v2) f1) (and (= ?v2 ?v0) (= (f5 ?v1 ?v2) f1)))))
(assert (forall ((?v0 S4) (?v1 S3) (?v2 S4)) (= (= (f5 (f6 (f8 f27 ?v0) ?v1) ?v2) f1) (=> (not (= ?v2 ?v0)) (= (f5 ?v1 ?v2) f1)))))
(assert (forall ((?v0 S8) (?v1 S8) (?v2 S8)) (= (= (f13 (f14 (f28 f29 ?v0) ?v1) ?v2) f1) (= ?v2 ?v0))))
(assert (forall ((?v0 S10) (?v1 S8) (?v2 S8)) (= (f14 (f28 (f30 f31 ?v0) ?v1) ?v2) (f14 ?v0 ?v1))))
(assert (forall ((?v0 S12) (?v1 S8) (?v2 S8)) (= (= (f13 (f14 (f18 f32 ?v0) ?v1) ?v2) f1) (forall ((?v3 S8)) (=> (= (f13 (f14 (f18 f19 ?v0) ?v2) ?v3) f1) (= ?v1 ?v3))))))
(assert (forall ((?v0 S10) (?v1 S9) (?v2 S8) (?v3 S8)) (= (= (f13 (f14 (f33 (f34 f35 ?v0) ?v1) ?v2) ?v3) f1) (and (= (f13 (f14 ?v0 ?v2) ?v3) f1) (not (= (f13 ?v1 ?v3) f1))))))
(assert (forall ((?v0 S1) (?v1 S10) (?v2 S8) (?v3 S8)) (= (= (f13 (f14 (f36 (f37 f38 ?v0) ?v1) ?v2) ?v3) f1) (and (= (f13 (f14 ?v1 ?v2) ?v3) f1) (= ?v0 f1)))))
(assert (forall ((?v0 S1) (?v1 S4) (?v2 S4) (?v3 S4)) (let ((?v_0 (= ?v0 f1))) (= (= (f5 (f11 (f39 (f40 f41 ?v0) ?v1) ?v2) ?v3) f1) (and (=> (= ?v_0 true) (= ?v3 ?v1)) (=> (= ?v_0 false) (= ?v3 ?v2)))))))
(assert (forall ((?v0 S1) (?v1 S1)) (= (= (f3 (f42 f43 ?v0) ?v1) f1) (= ?v0 f1))))
(assert (forall ((?v0 S4)) (= (= (f5 f44 ?v0) f1) false)))
(assert (not (= (f22 (f45 f46 f47) (f6 (f8 f9 (f48 (f49 (f50 f51 f15) f20) (f18 f19 f20))) f10)) f1)))
(assert (= f52 f1))
(assert (= (f22 (f45 f46 f47) (f6 (f8 f9 (f48 (f49 (f50 f51 f17) f20) f15)) f10)) f1))
(assert (forall ((?v0 S3)) (= (f22 (f45 f46 ?v0) f10) f1)))
(assert (forall ((?v0 S10) (?v1 S12) (?v2 S10) (?v3 S10) (?v4 S12) (?v5 S10)) (= (= (f48 (f49 (f50 f51 ?v0) ?v1) ?v2) (f48 (f49 (f50 f51 ?v3) ?v4) ?v5)) (and (= ?v0 ?v3) (and (= ?v1 ?v4) (= ?v2 ?v5))))))
(assert (forall ((?v0 S3) (?v1 S3) (?v2 S3)) (let ((?v_0 (f45 f46 ?v2))) (=> (= (f22 (f45 f46 ?v0) ?v1) f1) (=> (= (f22 ?v_0 ?v0) f1) (= (f22 ?v_0 ?v1) f1))))))
(assert (forall ((?v0 S3) (?v1 S4) (?v2 S3)) (let ((?v_0 (f45 f46 ?v0)) (?v_1 (f8 f9 ?v1))) (=> (= (f22 ?v_0 (f6 ?v_1 f10)) f1) (=> (= (f22 ?v_0 ?v2) f1) (= (f22 ?v_0 (f6 ?v_1 ?v2)) f1))))))
(assert (forall ((?v0 S3) (?v1 S4) (?v2 S3)) (let ((?v_0 (f45 f46 ?v0)) (?v_1 (f8 f9 ?v1))) (=> (= (f22 ?v_0 (f6 ?v_1 ?v2)) f1) (and (= (f22 ?v_0 (f6 ?v_1 f10)) f1) (= (f22 ?v_0 ?v2) f1))))))
(assert (forall ((?v0 S1) (?v1 S3) (?v2 S10) (?v3 S12) (?v4 S10)) (let ((?v_0 (f45 f46 ?v1))) (=> (=> (= ?v0 f1) (= (f22 ?v_0 (f6 (f8 f9 (f48 (f49 (f50 f51 ?v2) ?v3) ?v4)) f10)) f1)) (= (f22 ?v_0 (f6 (f8 f9 (f48 (f49 (f50 f51 (f36 (f37 f38 ?v0) ?v2)) ?v3) ?v4)) f10)) f1)))))
(assert (forall ((?v0 S3) (?v1 S12)) (let ((?v_0 (f45 f46 ?v0))) (=> (= (f22 ?v_0 (f6 (f8 f9 (f53 f54 ?v1)) f10)) f1) (= (f22 ?v_0 (f6 (f8 f9 (f48 (f49 (f50 f51 (f18 f32 ?v1)) ?v1) f15)) f10)) f1)))))
(assert (forall ((?v0 S10) (?v1 S3) (?v2 S12) (?v3 S10)) (=> (forall ((?v4 S8) (?v5 S8)) (=> (= (f13 (f14 ?v0 ?v4) ?v5) f1) (= (f22 (f45 f46 ?v1) (f6 (f8 f9 (f48 (f49 (f50 f51 (f28 f29 ?v5)) ?v2) (f28 (f30 f31 ?v3) ?v4))) f10)) f1))) (= (f22 (f45 f46 ?v1) (f6 (f8 f9 (f48 (f49 (f50 f51 ?v0) ?v2) ?v3)) f10)) f1))))
(assert (forall ((?v0 S3) (?v1 S10) (?v2 S12) (?v3 S10) (?v4 S10)) (let ((?v_0 (f45 f46 ?v0)) (?v_1 (f49 (f50 f51 ?v1) ?v2))) (=> (= (f22 ?v_0 (f6 (f8 f9 (f48 ?v_1 ?v3)) f10)) f1) (=> (forall ((?v5 S8) (?v6 S8)) (=> (= (f13 (f14 ?v3 ?v5) ?v6) f1) (= (f13 (f14 ?v4 ?v5) ?v6) f1))) (= (f22 ?v_0 (f6 (f8 f9 (f48 ?v_1 ?v4)) f10)) f1))))))
(assert (forall ((?v0 S3) (?v1 S10) (?v2 S12) (?v3 S10) (?v4 S10)) (let ((?v_0 (f45 f46 ?v0))) (=> (= (f22 ?v_0 (f6 (f8 f9 (f48 (f49 (f50 f51 ?v1) ?v2) ?v3)) f10)) f1) (=> (forall ((?v5 S8) (?v6 S8)) (=> (= (f13 (f14 ?v4 ?v5) ?v6) f1) (= (f13 (f14 ?v1 ?v5) ?v6) f1))) (= (f22 ?v_0 (f6 (f8 f9 (f48 (f49 (f50 f51 ?v4) ?v2) ?v3)) f10)) f1))))))
(assert (forall ((?v0 S12)) (= (f53 f54 ?v0) (f48 (f49 (f50 f51 f15) ?v0) (f18 f19 ?v0)))))
(assert (= (= f52 f1) (exists ((?v0 S8) (?v1 S8)) (not (= ?v0 ?v1)))))
(assert (=> (= f52 f1) (forall ((?v0 S8)) (=> (forall ((?v1 S8)) (= ?v1 ?v0)) false))))
(assert (forall ((?v0 S4) (?v1 S4) (?v2 S3)) (let ((?v_0 (f23 f24 ?v0))) (=> (= (f22 ?v_0 (f6 (f8 f9 ?v1) ?v2)) f1) (=> (=> (= ?v0 ?v1) false) (=> (=> (= (f22 ?v_0 ?v2) f1) false) false))))))
(assert (forall ((?v0 S4) (?v1 S3) (?v2 S4)) (let ((?v_0 (f23 f24 ?v0))) (=> (=> (not (= (f22 ?v_0 ?v1) f1)) (= ?v0 ?v2)) (= (f22 ?v_0 (f6 (f8 f9 ?v2) ?v1)) f1)))))
(assert (forall ((?v0 S3) (?v1 S10) (?v2 S12) (?v3 S10) (?v4 S10) (?v5 S10)) (let ((?v_0 (f45 f46 ?v0))) (=> (= (f22 ?v_0 (f6 (f8 f9 (f48 (f49 (f50 f51 ?v1) ?v2) ?v3)) f10)) f1) (=> (forall ((?v6 S8) (?v7 S8)) (=> (= (f13 (f14 ?v4 ?v6) ?v7) f1) (forall ((?v8 S8)) (=> (forall ((?v9 S8)) (=> (= (f13 (f14 ?v1 ?v9) ?v7) f1) (= (f13 (f14 ?v3 ?v9) ?v8) f1))) (= (f13 (f14 ?v5 ?v6) ?v8) f1))))) (= (f22 ?v_0 (f6 (f8 f9 (f48 (f49 (f50 f51 ?v4) ?v2) ?v5)) f10)) f1))))))
(assert (forall ((?v0 S4)) (=> (= (f22 (f23 f24 ?v0) f10) f1) false)))
(assert (forall ((?v0 S29) (?v1 S10) (?v2 S12) (?v3 S10)) (= (f55 (f56 f57 ?v0) (f48 (f49 (f50 f51 ?v1) ?v2) ?v3)) (f58 f59 0))))
(assert (forall ((?v0 S3) (?v1 S4)) (=> (= ?v0 f10) (not (= (f22 (f23 f24 ?v1) ?v0) f1)))))
(assert (forall ((?v0 S3)) (= (= (f6 f60 ?v0) f10) (forall ((?v1 S4)) (not (= (f5 ?v0 ?v1) f1))))))
(assert (forall ((?v0 S4)) (= (= (f22 (f23 f24 ?v0) f10) f1) false)))
(assert (forall ((?v0 S3)) (= (= f10 (f6 f60 ?v0)) (forall ((?v1 S4)) (not (= (f5 ?v0 ?v1) f1))))))
(assert (forall ((?v0 S3)) (= (forall ((?v1 S4)) (=> (= (f22 (f23 f24 ?v1) f10) f1) (= (f5 ?v0 ?v1) f1))) true)))
(assert (forall ((?v0 S3)) (= (exists ((?v1 S4)) (and (= (f22 (f23 f24 ?v1) f10) f1) (= (f5 ?v0 ?v1) f1))) false)))
(assert (forall ((?v0 S3)) (= (exists ((?v1 S4)) (= (f22 (f23 f24 ?v1) ?v0) f1)) (not (= ?v0 f10)))))
(assert (forall ((?v0 S3)) (= (forall ((?v1 S4)) (not (= (f22 (f23 f24 ?v1) ?v0) f1))) (= ?v0 f10))))
(assert (= f10 (f6 f60 f44)))
(assert (forall ((?v0 S4) (?v1 S3)) (=> (= (f22 (f23 f24 ?v0) ?v1) f1) (= (f6 (f8 f9 ?v0) ?v1) ?v1))))
(assert (forall ((?v0 S4) (?v1 S3) (?v2 S4)) (let ((?v_0 (f23 f24 ?v0))) (=> (= (f22 ?v_0 ?v1) f1) (= (f22 ?v_0 (f6 (f8 f9 ?v2) ?v1)) f1)))))
(assert (forall ((?v0 S4) (?v1 S3) (?v2 S3)) (let ((?v_0 (f23 f24 ?v0)) (?v_1 (f8 f9 ?v0))) (=> (not (= (f22 ?v_0 ?v1) f1)) (=> (not (= (f22 ?v_0 ?v2) f1)) (= (= (f6 ?v_1 ?v1) (f6 ?v_1 ?v2)) (= ?v1 ?v2)))))))
(assert (forall ((?v0 S4) (?v1 S3) (?v2 S4)) (= (= (f5 (f6 (f8 f9 ?v0) ?v1) ?v2) f1) (or (= ?v0 ?v2) (= (f5 ?v1 ?v2) f1)))))
(assert (forall ((?v0 S4) (?v1 S4) (?v2 S3)) (let ((?v_0 (f23 f24 ?v0))) (= (= (f22 ?v_0 (f6 (f8 f9 ?v1) ?v2)) f1) (or (= ?v0 ?v1) (= (f22 ?v_0 ?v2) f1))))))
(assert (forall ((?v0 S4) (?v1 S4) (?v2 S3)) (let ((?v_1 (f8 f9 ?v0)) (?v_0 (f8 f9 ?v1))) (= (f6 ?v_1 (f6 ?v_0 ?v2)) (f6 ?v_0 (f6 ?v_1 ?v2))))))
(assert (forall ((?v0 S4) (?v1 S3)) (let ((?v_0 (f8 f9 ?v0))) (let ((?v_1 (f6 ?v_0 ?v1))) (= (f6 ?v_0 ?v_1) ?v_1)))))
(assert (forall ((?v0 S4) (?v1 S3)) (= (f6 (f8 f9 ?v0) (f6 f60 ?v1)) (f6 f60 (f6 (f8 f27 ?v0) ?v1)))))
(assert (forall ((?v0 S4) (?v1 S3)) (= (f6 (f8 f9 ?v0) ?v1) (f6 f60 (f6 (f8 f21 ?v0) ?v1)))))
(assert (forall ((?v0 S4) (?v1 S3)) (= (f22 (f23 f24 ?v0) (f6 (f8 f9 ?v0) ?v1)) f1)))
(assert (forall ((?v0 S4) (?v1 S3)) (= (f6 (f8 f9 ?v0) ?v1) (f6 f60 (f6 (f8 f21 ?v0) ?v1)))))
(assert (forall ((?v0 S4) (?v1 S4)) (=> (= (f6 (f8 f9 ?v0) f10) (f6 (f8 f9 ?v1) f10)) (= ?v0 ?v1))))
(assert (forall ((?v0 S4) (?v1 S4)) (=> (= (f22 (f23 f24 ?v0) (f6 (f8 f9 ?v1) f10)) f1) (=> (=> (= ?v0 ?v1) false) false))))
(assert (forall ((?v0 S4) (?v1 S4) (?v2 S4) (?v3 S4)) (= (= (f6 (f8 f9 ?v0) (f6 (f8 f9 ?v1) f10)) (f6 (f8 f9 ?v2) (f6 (f8 f9 ?v3) f10))) (or (and (= ?v0 ?v2) (= ?v1 ?v3)) (and (= ?v0 ?v3) (= ?v1 ?v2))))))
(assert (forall ((?v0 S4) (?v1 S4)) (= (= (f22 (f23 f24 ?v0) (f6 (f8 f9 ?v1) f10)) f1) (= ?v0 ?v1))))
(assert (forall ((?v0 S4) (?v1 S3)) (not (= (f6 (f8 f9 ?v0) ?v1) f10))))
(assert (forall ((?v0 S4) (?v1 S3)) (not (= f10 (f6 (f8 f9 ?v0) ?v1)))))
(assert (forall ((?v0 S4) (?v1 S3)) (= (f6 f60 (f6 (f8 f26 ?v0) ?v1)) (ite (= (f5 ?v1 ?v0) f1) (f6 (f8 f9 ?v0) f10) f10))))
(assert (forall ((?v0 S4) (?v1 S3)) (= (f6 f60 (f6 (f8 f25 ?v0) ?v1)) (ite (= (f5 ?v1 ?v0) f1) (f6 (f8 f9 ?v0) f10) f10))))
(assert (forall ((?v0 S4)) (= (f6 f60 (f11 f16 ?v0)) (f6 (f8 f9 ?v0) f10))))
(assert (forall ((?v0 S4)) (= (f6 f60 (f11 f12 ?v0)) (f6 (f8 f9 ?v0) f10))))
(assert (forall ((?v0 S4)) (= (f61 f62 (f6 (f8 f9 ?v0) f10)) ?v0)))
(assert (forall ((?v0 S4)) (= (= (f5 f10 ?v0) f1) (= f63 f1))))
(assert (forall ((?v0 S4)) (= (= (f5 f10 ?v0) f1) (= f63 f1))))
(assert (forall ((?v0 S3) (?v1 S10)) (= (f22 (f45 f46 ?v0) (f6 (f8 f9 (f48 (f49 (f50 f51 ?v1) f64) ?v1)) f10)) f1)))
(assert (forall ((?v0 S3) (?v1 S10) (?v2 S9) (?v3 S12)) (= (f22 (f45 f46 ?v0) (f6 (f8 f9 (f48 (f49 (f50 f51 (f33 (f34 f35 ?v1) ?v2)) (f65 (f66 f67 ?v2) ?v3)) ?v1)) f10)) f1)))
(assert (forall ((?v0 S3) (?v1 S10) (?v2 S12) (?v3 S10) (?v4 S12) (?v5 S10)) (let ((?v_0 (f45 f46 ?v0)) (?v_1 (f50 f51 ?v1))) (=> (= (f22 ?v_0 (f6 (f8 f9 (f48 (f49 ?v_1 ?v2) ?v3)) f10)) f1) (=> (= (f22 ?v_0 (f6 (f8 f9 (f48 (f49 (f50 f51 ?v3) ?v4) ?v5)) f10)) f1) (= (f22 ?v_0 (f6 (f8 f9 (f48 (f49 ?v_1 (f65 (f68 f69 ?v2) ?v4)) ?v5)) f10)) f1))))))
(assert (forall ((?v0 S10) (?v1 S12) (?v2 S10)) (= (f55 f70 (f48 (f49 (f50 f51 ?v0) ?v1) ?v2)) (f58 f59 0))))
(assert (forall ((?v0 S4)) (=> (forall ((?v1 S10) (?v2 S12) (?v3 S10)) (=> (= ?v0 (f48 (f49 (f50 f51 ?v1) ?v2) ?v3)) false)) false)))
(assert (forall ((?v0 S8)) (= (f13 (f14 (f18 f19 f64) ?v0) ?v0) f1)))
(assert (forall ((?v0 S8) (?v1 S8)) (=> (= (f13 (f14 (f18 f19 f64) ?v0) ?v1) f1) (=> (=> (= ?v1 ?v0) false) false))))
(assert (forall ((?v0 S12) (?v1 S8) (?v2 S8) (?v3 S12) (?v4 S8)) (=> (= (f13 (f14 (f18 f19 ?v0) ?v1) ?v2) f1) (=> (= (f13 (f14 (f18 f19 ?v3) ?v2) ?v4) f1) (= (f13 (f14 (f18 f19 (f65 (f68 f69 ?v0) ?v3)) ?v1) ?v4) f1)))))
(assert (forall ((?v0 S9) (?v1 S8) (?v2 S12)) (=> (not (= (f13 ?v0 ?v1) f1)) (= (f13 (f14 (f18 f19 (f65 (f66 f67 ?v0) ?v2)) ?v1) ?v1) f1))))
(assert (forall ((?v0 S9) (?v1 S8) (?v2 S12) (?v3 S8) (?v4 S8)) (let ((?v_0 (f18 f19 (f65 (f66 f67 ?v0) ?v2)))) (=> (= (f13 ?v0 ?v1) f1) (=> (= (f13 (f14 (f18 f19 ?v2) ?v1) ?v3) f1) (=> (= (f13 (f14 ?v_0 ?v3) ?v4) f1) (= (f13 (f14 ?v_0 ?v1) ?v4) f1)))))))
(assert (forall ((?v0 S12) (?v1 S12)) (not (= (f65 (f68 f69 ?v0) ?v1) f64))))
(assert (forall ((?v0 S12) (?v1 S12)) (not (= f64 (f65 (f68 f69 ?v0) ?v1)))))
(assert (forall ((?v0 S12) (?v1 S8) (?v2 S8) (?v3 S8)) (let ((?v_0 (f14 (f18 f19 ?v0) ?v1))) (=> (= (f13 ?v_0 ?v2) f1) (=> (= (f13 ?v_0 ?v3) f1) (= ?v3 ?v2))))))
(assert (forall ((?v0 S9) (?v1 S12) (?v2 S9) (?v3 S12)) (= (= (f65 (f66 f67 ?v0) ?v1) (f65 (f66 f67 ?v2) ?v3)) (and (= ?v0 ?v2) (= ?v1 ?v3)))))
(assert (forall ((?v0 S12) (?v1 S12) (?v2 S12) (?v3 S12)) (= (= (f65 (f68 f69 ?v0) ?v1) (f65 (f68 f69 ?v2) ?v3)) (and (= ?v0 ?v2) (= ?v1 ?v3)))))
(assert (forall ((?v0 S12) (?v1 S12) (?v2 S9) (?v3 S12)) (not (= (f65 (f68 f69 ?v0) ?v1) (f65 (f66 f67 ?v2) ?v3)))))
(assert (forall ((?v0 S9) (?v1 S12) (?v2 S12) (?v3 S12)) (not (= (f65 (f66 f67 ?v0) ?v1) (f65 (f68 f69 ?v2) ?v3)))))
(assert (forall ((?v0 S9) (?v1 S12)) (not (= f64 (f65 (f66 f67 ?v0) ?v1)))))
(assert (forall ((?v0 S9) (?v1 S12)) (not (= (f65 (f66 f67 ?v0) ?v1) f64))))
(assert (forall ((?v0 S12) (?v1 S12) (?v2 S8) (?v3 S8)) (=> (= (f13 (f14 (f18 f19 (f65 (f68 f69 ?v0) ?v1)) ?v2) ?v3) f1) (=> (forall ((?v4 S8)) (=> (= (f13 (f14 (f18 f19 ?v0) ?v2) ?v4) f1) (=> (= (f13 (f14 (f18 f19 ?v1) ?v4) ?v3) f1) false))) false))))
(assert (forall ((?v0 S9) (?v1 S12) (?v2 S8) (?v3 S8)) (=> (= (f13 (f14 (f18 f19 (f65 (f66 f67 ?v0) ?v1)) ?v2) ?v3) f1) (=> (=> (= ?v3 ?v2) (=> (not (= (f13 ?v0 ?v2) f1)) false)) (=> (forall ((?v4 S8)) (=> (= (f13 ?v0 ?v2) f1) (=> (= (f13 (f14 (f18 f19 ?v1) ?v2) ?v4) f1) (=> (= (f13 (f14 (f18 f19 (f65 (f66 f67 ?v0) ?v1)) ?v4) ?v3) f1) false)))) false)))))
(assert (forall ((?v0 S3)) (= (f61 f62 ?v0) (f61 f71 (f6 f7 ?v0)))))
(assert (forall ((?v0 S4) (?v1 S3)) (= (= (f22 (f23 f24 ?v0) ?v1) f1) (= (f5 ?v1 ?v0) f1))))
(assert (forall ((?v0 S3)) (= (f6 f60 ?v0) ?v0)))
(assert (forall ((?v0 S4) (?v1 S3)) (=> (= (f22 (f23 f24 ?v0) ?v1) f1) (=> (forall ((?v2 S3)) (=> (= ?v1 (f6 (f8 f9 ?v0) ?v2)) (=> (not (= (f22 (f23 f24 ?v0) ?v2) f1)) false))) false))))
(assert (forall ((?v0 S4) (?v1 S3)) (=> (= (f22 (f23 f24 ?v0) ?v1) f1) (exists ((?v2 S3)) (and (= ?v1 (f6 (f8 f9 ?v0) ?v2)) (not (= (f22 (f23 f24 ?v0) ?v2) f1)))))))
(assert (forall ((?v0 S3)) (=> (forall ((?v1 S4)) (=> (= (f22 (f23 f24 ?v1) ?v0) f1) false)) (= ?v0 f10))))
(assert (forall ((?v0 S1) (?v1 S4) (?v2 S4)) (= (ite (= ?v0 f1) ?v1 ?v2) (f61 f71 (f11 (f39 (f40 f41 ?v0) ?v1) ?v2)))))
(assert (forall ((?v0 S4)) (= (f61 f71 (f11 f16 ?v0)) ?v0)))
(assert (forall ((?v0 S4)) (= (f61 f71 (f11 f12 ?v0)) ?v0)))
(assert (forall ((?v0 S3) (?v1 S4)) (=> (= (f5 ?v0 ?v1) f1) (=> (forall ((?v2 S4)) (=> (= (f5 ?v0 ?v2) f1) (= ?v2 ?v1))) (= (f61 f71 ?v0) ?v1)))))
(assert (forall ((?v0 S3) (?v1 S4)) (=> (= (f5 ?v0 ?v1) f1) (=> (forall ((?v2 S4)) (=> (= (f5 ?v0 ?v2) f1) (= ?v2 ?v1))) (= (f5 ?v0 (f61 f71 ?v0)) f1)))))
(assert (forall ((?v0 S3) (?v1 S4)) (=> (exists ((?v2 S4)) (and (= (f5 ?v0 ?v2) f1) (forall ((?v3 S4)) (=> (= (f5 ?v0 ?v3) f1) (= ?v3 ?v2))))) (=> (= (f5 ?v0 ?v1) f1) (= (f61 f71 ?v0) ?v1)))))
(assert (forall ((?v0 S3)) (=> (exists ((?v1 S4)) (and (= (f5 ?v0 ?v1) f1) (forall ((?v2 S4)) (=> (= (f5 ?v0 ?v2) f1) (= ?v2 ?v1))))) (= (f5 ?v0 (f61 f71 ?v0)) f1))))
(assert (forall ((?v0 S10) (?v1 S3) (?v2 S12) (?v3 S10)) (=> (forall ((?v4 S8) (?v5 S8)) (=> (= (f13 (f14 ?v0 ?v4) ?v5) f1) (exists ((?v6 S10) (?v7 S10)) (and (= (f22 (f45 f46 ?v1) (f6 (f8 f9 (f48 (f49 (f50 f51 ?v6) ?v2) ?v7)) f10)) f1) (forall ((?v8 S8)) (=> (forall ((?v9 S8)) (=> (= (f13 (f14 ?v6 ?v9) ?v5) f1) (= (f13 (f14 ?v7 ?v9) ?v8) f1))) (= (f13 (f14 ?v3 ?v4) ?v8) f1))))))) (= (f22 (f45 f46 ?v1) (f6 (f8 f9 (f48 (f49 (f50 f51 ?v0) ?v2) ?v3)) f10)) f1))))
(assert (forall ((?v0 S3) (?v1 S10) (?v2 S9) (?v3 S12)) (let ((?v_0 (f45 f46 ?v0)) (?v_1 (f34 f72 ?v1))) (=> (= (f22 ?v_0 (f6 (f8 f9 (f48 (f49 (f50 f51 (f33 ?v_1 ?v2)) ?v3) ?v1)) f10)) f1) (= (f22 ?v_0 (f6 (f8 f9 (f48 (f49 (f50 f51 ?v1) (f65 (f66 f67 ?v2) ?v3)) (f33 ?v_1 (f73 (f74 f75 f4) ?v2)))) f10)) f1)))))
(assert (forall ((?v0 S10) (?v1 S9) (?v2 S8) (?v3 S8)) (= (= (f13 (f14 (f33 (f34 f72 ?v0) ?v1) ?v2) ?v3) f1) (and (= (f13 (f14 ?v0 ?v2) ?v3) f1) (= (f13 ?v1 ?v3) f1)))))
(assert (forall ((?v0 S3) (?v1 S10) (?v2 S9) (?v3 S12)) (let ((?v_0 (f45 f76 ?v0)) (?v_1 (f34 f72 ?v1))) (=> (= (f22 ?v_0 (f6 (f8 f9 (f48 (f49 (f50 f51 (f33 ?v_1 ?v2)) ?v3) ?v1)) f10)) f1) (= (f22 ?v_0 (f6 (f8 f9 (f48 (f49 (f50 f51 ?v1) (f65 (f66 f67 ?v2) ?v3)) (f33 ?v_1 (f73 (f74 f75 f4) ?v2)))) f10)) f1)))))
(assert (forall ((?v0 S3) (?v1 S10) (?v2 S9) (?v3 S12) (?v4 S10) (?v5 S12)) (let ((?v_0 (f45 f46 ?v0)) (?v_1 (f34 f72 ?v1))) (=> (= (f22 ?v_0 (f6 (f8 f9 (f48 (f49 (f50 f51 (f33 ?v_1 ?v2)) ?v3) ?v4)) f10)) f1) (=> (= (f22 ?v_0 (f6 (f8 f9 (f48 (f49 (f50 f51 (f33 ?v_1 (f73 (f74 f75 f4) ?v2))) ?v5) ?v4)) f10)) f1) (= (f22 ?v_0 (f6 (f8 f9 (f48 (f49 (f50 f51 ?v1) (f65 (f68 (f77 f78 ?v2) ?v3) ?v5)) ?v4)) f10)) f1))))))
(assert (forall ((?v0 S1) (?v1 S9) (?v2 S8)) (= (= (f13 (f73 (f74 f75 (f42 f43 ?v0)) ?v1) ?v2) f1) (= ?v0 f1))))
(assert (forall ((?v0 S2) (?v1 S9) (?v2 S8)) (= (= (f13 (f73 (f74 f75 ?v0) ?v1) ?v2) f1) (= (f3 ?v0 (f13 ?v1 ?v2)) f1))))
(assert (forall ((?v0 S9) (?v1 S8) (?v2 S12) (?v3 S8) (?v4 S12)) (=> (not (= (f13 ?v0 ?v1) f1)) (=> (= (f13 (f14 (f18 f19 ?v2) ?v1) ?v3) f1) (= (f13 (f14 (f18 f19 (f65 (f68 (f77 f78 ?v0) ?v4) ?v2)) ?v1) ?v3) f1)))))
(assert (forall ((?v0 S9) (?v1 S8) (?v2 S12) (?v3 S8) (?v4 S12)) (=> (= (f13 ?v0 ?v1) f1) (=> (= (f13 (f14 (f18 f19 ?v2) ?v1) ?v3) f1) (= (f13 (f14 (f18 f19 (f65 (f68 (f77 f78 ?v0) ?v2) ?v4)) ?v1) ?v3) f1)))))
(assert (forall ((?v0 S9) (?v1 S12) (?v2 S12) (?v3 S8) (?v4 S8)) (let ((?v_0 (= (f13 ?v0 ?v3) f1))) (=> (= (f13 (f14 (f18 f19 (f65 (f68 (f77 f78 ?v0) ?v1) ?v2)) ?v3) ?v4) f1) (=> (=> ?v_0 (=> (= (f13 (f14 (f18 f19 ?v1) ?v3) ?v4) f1) false)) (=> (=> (not ?v_0) (=> (= (f13 (f14 (f18 f19 ?v2) ?v3) ?v4) f1) false)) false))))))
(assert (forall ((?v0 S9) (?v1 S12) (?v2 S12) (?v3 S9) (?v4 S12) (?v5 S12)) (= (= (f65 (f68 (f77 f78 ?v0) ?v1) ?v2) (f65 (f68 (f77 f78 ?v3) ?v4) ?v5)) (and (= ?v0 ?v3) (and (= ?v1 ?v4) (= ?v2 ?v5))))))
(assert (forall ((?v0 S9) (?v1 S12) (?v2 S12) (?v3 S9) (?v4 S12)) (not (= (f65 (f68 (f77 f78 ?v0) ?v1) ?v2) (f65 (f66 f67 ?v3) ?v4)))))
(assert (forall ((?v0 S9) (?v1 S12) (?v2 S9) (?v3 S12) (?v4 S12)) (not (= (f65 (f66 f67 ?v0) ?v1) (f65 (f68 (f77 f78 ?v2) ?v3) ?v4)))))
(assert (forall ((?v0 S9) (?v1 S12) (?v2 S12) (?v3 S12) (?v4 S12)) (not (= (f65 (f68 (f77 f78 ?v0) ?v1) ?v2) (f65 (f68 f69 ?v3) ?v4)))))
(assert (forall ((?v0 S12) (?v1 S12) (?v2 S9) (?v3 S12) (?v4 S12)) (not (= (f65 (f68 f69 ?v0) ?v1) (f65 (f68 (f77 f78 ?v2) ?v3) ?v4)))))
(assert (forall ((?v0 S9) (?v1 S12) (?v2 S12)) (not (= (f65 (f68 (f77 f78 ?v0) ?v1) ?v2) f64))))
(assert (forall ((?v0 S9) (?v1 S12) (?v2 S12)) (not (= f64 (f65 (f68 (f77 f78 ?v0) ?v1) ?v2)))))
(assert (forall ((?v0 S3) (?v1 S3)) (=> (= (f22 (f45 f46 ?v0) ?v1) f1) (= (f22 (f45 f76 ?v0) ?v1) f1))))
(assert (forall ((?v0 S2) (?v1 S9) (?v2 S9) (?v3 S8)) (=> (= (f73 (f74 f75 ?v0) ?v1) ?v2) (= (= (f3 ?v0 (f13 ?v1 ?v3)) f1) (= (f13 ?v2 ?v3) f1)))))
(assert (forall ((?v0 S2) (?v1 S9) (?v2 S8)) (= (= (f13 (f73 (f74 f75 ?v0) ?v1) ?v2) f1) (= (f3 ?v0 (f13 ?v1 ?v2)) f1))))
(assert (forall ((?v0 S3)) (= (not (= ?v0 f10)) (exists ((?v1 S4) (?v2 S3)) (and (= ?v0 (f6 (f8 f9 ?v1) ?v2)) (not (= (f22 (f23 f24 ?v1) ?v2) f1)))))))
(assert (forall ((?v0 S4)) (= (= (f5 f10 ?v0) f1) (= (f22 (f23 f24 ?v0) f10) f1))))
(assert (forall ((?v0 S3) (?v1 S4) (?v2 S3)) (=> (= (f5 ?v0 ?v1) f1) (=> (forall ((?v3 S4)) (=> (= (f5 ?v0 ?v3) f1) (= ?v3 ?v1))) (=> (forall ((?v3 S4)) (=> (= (f5 ?v0 ?v3) f1) (= (f5 ?v2 ?v3) f1))) (= (f5 ?v2 (f61 f71 ?v0)) f1))))))
(assert (forall ((?v0 S3) (?v1 S3)) (=> (exists ((?v2 S4)) (and (= (f5 ?v0 ?v2) f1) (forall ((?v3 S4)) (=> (= (f5 ?v0 ?v3) f1) (= ?v3 ?v2))))) (=> (forall ((?v2 S4)) (=> (= (f5 ?v0 ?v2) f1) (= (f5 ?v1 ?v2) f1))) (= (f5 ?v1 (f61 f71 ?v0)) f1)))))
(assert (forall ((?v0 S41) (?v1 S4) (?v2 S4)) (= (= (f5 (f6 (f79 f80 ?v0) (f6 (f8 f9 ?v1) f10)) ?v2) f1) (= ?v1 ?v2))))
(assert (forall ((?v0 S41) (?v1 S34) (?v2 S4)) (=> (= (f81 (f82 f83 ?v0) ?v1) f1) (= (f61 ?v1 (f6 (f8 f9 ?v2) f10)) ?v2))))
(assert (forall ((?v0 S4) (?v1 S3)) (= (f61 (f84 f85 ?v0) ?v1) (ite (exists ((?v2 S4)) (and (= (f5 ?v1 ?v2) f1) (forall ((?v3 S4)) (=> (= (f5 ?v1 ?v3) f1) (= ?v3 ?v2))))) (f61 f71 ?v1) ?v0))))
(assert (forall ((?v0 S41) (?v1 S3) (?v2 S4)) (=> (= (f5 (f6 (f79 f80 ?v0) ?v1) ?v2) f1) (not (= ?v1 f10)))))
(assert (forall ((?v0 S31)) (= (f58 f59 (f86 f87 ?v0)) ?v0)))
(assert (forall ((?v0 Int)) (=> (<= 0 ?v0) (= (f86 f87 (f58 f59 ?v0)) ?v0))))
(assert (forall ((?v0 Int)) (=> (< ?v0 0) (= (f86 f87 (f58 f59 ?v0)) 0))))
(check-sat)
(exit)
